p tw 61 65
1 2
2 13
3 56
4 5
5 6
6 7
7 8
8 9
9 10
10 11
11 12
11 51
12 14
13 24
14 15
15 16
16 17
17 18
17 51
18 19
19 20
20 21
21 22
22 23
23 25
24 35
25 26
26 27
27 28
28 29
29 30
29 51
30 31
31 32
32 33
33 34
34 36
35 46
36 37
37 38
38 39
39 40
40 41
41 42
41 51
42 43
43 44
44 45
45 47
46 57
47 48
48 49
49 50
50 56
51 52
52 53
53 54
54 55
55 56
56 58
57 59
59 60
60 61
61 3
61 4
